25 50
1 2 4
1 6 2
2 3 1
2 7 2
3 4 2
3 8 3
4 5 4
4 9 2
5 10 3
6 7 3
6 11 4
7 8 3
7 12 2
8 9 5
8 13 5
9 10 3
9 14 4
10 15 2
11 12 3
11 16 4
12 13 5
12 17 1
13 14 4
13 18 2
14 15 5
14 19 5
15 20 5
16 17 4
16 21 3
17 18 4
17 22 2
18 19 1
18 23 5
19 20 3
19 24 3
20 25 2
21 22 2
22 23 1
23 24 4
24 25 3
1 21 3
2 22 3
3 23 2
4 24 1
5 25 5
1 5 2
6 10 3
11 15 2
16 20 4
21 25 2
